(declare-fun temp4545_1 () (_ BitVec 64))
(declare-fun temp4545_2 () (_ BitVec 64))
(declare-fun var70588 () (_ BitVec 64))
(declare-fun k!0 () Bool)
(declare-fun ARGNAME_input_NAMEEND_DIM () (_ BitVec 64))
(declare-fun temp4545_3 () (_ BitVec 64))
(declare-fun ARGNAME_paddings_NAMEEND_DIM () (_ BitVec 64))
(declare-fun var137105 () (_ BitVec 64))
(declare-fun var137101 () (_ BitVec 64))
(declare-fun var70624 () (_ BitVec 64))
(declare-fun temp4545_4 () (_ BitVec 64))
(declare-fun temp4545_5 () (_ BitVec 64))
(declare-fun ARGNAME_paddings_NAMEEND_DIMSIZE
             ()
             (Array (_ BitVec 64) (_ BitVec 64)))
(declare-fun temp4545_6 () (_ BitVec 64))
(declare-fun temp4545_7 () (_ BitVec 64))
(declare-fun temp4545_8 () (_ BitVec 64))
(declare-fun temp4545_9 () (_ BitVec 64))
(declare-fun temp4545_10 () (_ BitVec 64))
(declare-fun temp4545_11 () (_ BitVec 64))
(declare-fun temp4545_12 () (_ BitVec 64))
(declare-fun temp4545_13 () (_ BitVec 64))
(declare-fun temp4545_14 () (_ BitVec 64))
(declare-fun temp4545_15 () (_ BitVec 64))
(declare-fun temp4545_16 () (_ BitVec 64))
(declare-fun temp4545_17 () (_ BitVec 64))
(declare-fun temp4545_18 () (_ BitVec 64))
(declare-fun var70628 () (_ BitVec 64))
(declare-fun temp4545_19 () (_ BitVec 64))
(declare-fun var70631 () (_ BitVec 64))
(declare-fun temp4545_20 () (_ BitVec 64))
(declare-fun temp4545_21 () (_ BitVec 64))
(declare-fun temp4545_22 () (_ BitVec 64))
(declare-fun var70672 () (_ BitVec 64))
(declare-fun var70673 () (_ BitVec 64))
(declare-fun temp4545_23 () (_ BitVec 64))
(declare-fun temp4545_25 () (_ BitVec 64))
(declare-fun temp4545_24 () (_ BitVec 64))
(declare-fun temp4545_27 () (_ BitVec 64))
(declare-fun temp4545_26 () (_ BitVec 64))
(declare-fun temp4545_29 () (_ BitVec 64))
(declare-fun temp4545_28 () (_ BitVec 64))
(declare-fun temp4545_30 () (_ BitVec 64))
(declare-fun var70819 () (_ BitVec 64))
(declare-fun temp4545_31 () (_ BitVec 64))
(declare-fun temp4545_32 () (_ BitVec 64))
(declare-fun var70840 () (_ BitVec 64))
(declare-fun var596152 () (_ BitVec 64))
(declare-fun temp4545_33 () (_ BitVec 64))
(declare-fun var596153 () (_ BitVec 64))
(declare-fun temp4545_34 () (_ BitVec 64))
(declare-fun var663491 () (_ BitVec 64))
(declare-fun var596156 () (_ BitVec 64))
(declare-fun temp4545_35 () (_ BitVec 64))
(declare-fun var1054904 () (_ BitVec 64))
(declare-fun temp4545_36 () (_ BitVec 64))
(declare-fun var1054905 () (_ BitVec 64))
(declare-fun temp4545_37 () (_ BitVec 64))
(declare-fun var1122243 () (_ BitVec 64))
(declare-fun var1054908 () (_ BitVec 64))
(declare-fun temp4545_38 () (_ BitVec 64))
(declare-fun var70890 () (_ BitVec 64))
(declare-fun temp4545_39 () (_ BitVec 64))
(declare-fun ARGNAME_input_NAMEEND_DIMSIZE
             ()
             (Array (_ BitVec 64) (_ BitVec 64)))
(declare-fun temp4545_40 () (_ BitVec 64))
(declare-fun temp4545_41 () (_ BitVec 64))
(declare-fun temp4545_42 () (_ BitVec 64))
(declare-fun temp4545_43 () (_ BitVec 64))
(declare-fun temp4545_44 () (_ BitVec 64))
(declare-fun temp4545_45 () (_ BitVec 64))
(declare-fun temp4545_46 () (_ BitVec 64))
(declare-fun temp4545_47 () (_ BitVec 64))
(declare-fun temp4545_48 () (_ BitVec 64))
(declare-fun temp4545_49 () (_ BitVec 64))
(declare-fun temp4545_50 () (_ BitVec 64))
(declare-fun temp4545_51 () (_ BitVec 64))
(declare-fun var70891 () (_ BitVec 64))
(declare-fun temp4545_52 () (_ BitVec 64))
(declare-fun var70921 () (_ BitVec 64))
(declare-fun var70925 () (_ BitVec 64))
(declare-fun temp4545_53 () (_ BitVec 64))
(declare-fun var70926 () (_ BitVec 64))
(declare-fun temp4545_54 () (_ BitVec 64))
(declare-fun var70828 () (_ BitVec 64))
(declare-fun var70827 () (_ BitVec 64))
(declare-fun temp4545_57 () (_ BitVec 64))
(declare-fun var70933 () (_ BitVec 64))
(declare-fun temp4545_58 () (_ BitVec 64))
(declare-fun var70935 () (_ BitVec 64))
(declare-fun temp4545_59 () (_ BitVec 64))
(declare-fun temp4545_60 () (_ BitVec 64))
(declare-fun var71011 () (_ BitVec 64))
(declare-fun temp4545_61 () (_ BitVec 64))
(declare-fun temp4545_63 () (_ BitVec 64))
(declare-fun temp4545_62 () (_ BitVec 64))
(declare-fun temp4545_65 () (_ BitVec 64))
(declare-fun temp4545_64 () (_ BitVec 64))
(declare-fun temp4545_67 () (_ BitVec 64))
(declare-fun temp4545_66 () (_ BitVec 64))
(declare-fun temp4545_68 () (_ BitVec 64))
(assert (= temp4545_1 #x0000000000000009))
(assert (= var70588
   (ite (bvslt ARGNAME_input_NAMEEND_DIM temp4545_1)
        #x0000000000000001
        #x0000000000000000)))
(assert (= temp4545_2 #x0000000000000001))
(assert (= var70588 temp4545_2))
(assert (= temp4545_3 #x0000000000000002))
(assert (= var137105
   (ite (= ARGNAME_paddings_NAMEEND_DIM temp4545_3)
        #x0000000000000001
        #x0000000000000000)))
(assert (= var137101 var137105))
(assert (= var70624 var137101))
(assert (= temp4545_4 #x0000000000000001))
(assert (= var70624 temp4545_4))
(assert (= temp4545_5 #x0000000000000000))
(assert (= temp4545_6 (select ARGNAME_paddings_NAMEEND_DIMSIZE temp4545_5)))
(assert (= temp4545_7 #x0000000000000001))
(assert (= temp4545_8 (select ARGNAME_paddings_NAMEEND_DIMSIZE temp4545_7)))
(assert (= temp4545_9 #x0000000000000002))
(assert (= temp4545_10 (select ARGNAME_paddings_NAMEEND_DIMSIZE temp4545_9)))
(assert (= temp4545_11 #x0000000000000003))
(assert (= temp4545_12 (select ARGNAME_paddings_NAMEEND_DIMSIZE temp4545_11)))
(assert (= temp4545_13 #x0000000000000004))
(assert (= temp4545_14 (select ARGNAME_paddings_NAMEEND_DIMSIZE temp4545_13)))
(assert (= temp4545_15 #x0000000000000005))
(assert (= temp4545_16 (select ARGNAME_paddings_NAMEEND_DIMSIZE temp4545_15)))
(assert (= temp4545_17 #x0000000000000001))
(assert (= temp4545_18 (select ARGNAME_paddings_NAMEEND_DIMSIZE temp4545_17)))
(assert (= var70628 temp4545_18))
(assert (= temp4545_19 #x0000000000000002))
(assert (= var70631
   (ite (= var70628 temp4545_19) #x0000000000000001 #x0000000000000000)))
(assert (= temp4545_20 #x0000000000000001))
(assert (= var70631 temp4545_20))
(assert (= temp4545_21 #x0000000000000000))
(assert (= temp4545_22 (select ARGNAME_paddings_NAMEEND_DIMSIZE temp4545_21)))
(assert (= var70672 temp4545_22))
(assert (= var70673
   (ite (= var70672 ARGNAME_input_NAMEEND_DIM)
        #x0000000000000001
        #x0000000000000000)))
(assert (= temp4545_23 #x0000000000000001))
(assert (= var70673 temp4545_23))
(assert (= temp4545_25 #x0000000000000000))
(assert (= temp4545_24 temp4545_25))
(assert (= temp4545_27 #x0000000000000000))
(assert (= temp4545_26 temp4545_27))
(assert (= temp4545_29 #x0000000000000000))
(assert (= temp4545_28 temp4545_29))
(assert (= temp4545_30 #x0000000000000000))
(assert (= var70819
   (ite (bvsgt ARGNAME_input_NAMEEND_DIM temp4545_30)
        #x0000000000000001
        #x0000000000000000)))
(assert (= temp4545_31 #x0000000000000001))
(assert (= var70819 temp4545_31))
(assert (= temp4545_32 #x0000000000000000))
(assert (= var70840 temp4545_32))
(assert (= var596152 var70840))
(assert (= temp4545_33 #x0000000000000000))
(assert (= var596153 temp4545_33))
(assert (= temp4545_34 #x0000000000000001))
(assert (= var663491 temp4545_34))
(assert (= var596156 var663491))
(assert (= temp4545_35 #x0000000000000001))
(assert (= var596156 temp4545_35))
(assert (= var1054904 var70840))
(assert (= temp4545_36 #x0000000000000001))
(assert (= var1054905 temp4545_36))
(assert (= temp4545_37 #x0000000000000001))
(assert (= var1122243 temp4545_37))
(assert (= var1054908 var1122243))
(assert (= temp4545_38 #x0000000000000001))
(assert (= var1054908 temp4545_38))
(assert (= var70890 var70840))
(assert (= temp4545_39 #x0000000000000000))
(assert (= temp4545_40 (select ARGNAME_input_NAMEEND_DIMSIZE temp4545_39)))
(assert (= temp4545_41 #x0000000000000001))
(assert (= temp4545_42 (select ARGNAME_input_NAMEEND_DIMSIZE temp4545_41)))
(assert (= temp4545_43 #x0000000000000002))
(assert (= temp4545_44 (select ARGNAME_input_NAMEEND_DIMSIZE temp4545_43)))
(assert (= temp4545_45 #x0000000000000003))
(assert (= temp4545_46 (select ARGNAME_input_NAMEEND_DIMSIZE temp4545_45)))
(assert (= temp4545_47 #x0000000000000004))
(assert (= temp4545_48 (select ARGNAME_input_NAMEEND_DIMSIZE temp4545_47)))
(assert (= temp4545_49 #x0000000000000005))
(assert (= temp4545_50 (select ARGNAME_input_NAMEEND_DIMSIZE temp4545_49)))
(assert (= temp4545_51 (select ARGNAME_input_NAMEEND_DIMSIZE var70890)))
(assert (= var70891 temp4545_51))
(assert (= temp4545_52 #x0000000000000000))
(assert (= var70921 temp4545_52))
(assert (= var70925 var70921))
(assert (= temp4545_53 #x0000000000000000))
(assert (= var70926
   (ite (= var70925 temp4545_53) #x0000000000000001 #x0000000000000000)))
(assert (= temp4545_54 #x0000000000000001))
(assert (= var70828 (bvadd var70840 temp4545_54)))
(assert (= var70827
   (ite (= var70828 ARGNAME_input_NAMEEND_DIM)
        #x0000000000000001
        #x0000000000000000)))
(assert (= temp4545_57 #x000000000000000a))
(assert (= var70933 temp4545_57))
(assert (= temp4545_58 #x000000000000000a))
(assert (= var70935
   (ite (= var70933 temp4545_58) #x0000000000000001 #x0000000000000000)))
(assert (= temp4545_59 #x0000000000000001))
(assert (= var70935 temp4545_59))
(assert (= temp4545_60 #x0000000000000001))
(assert (= var71011
   (ite (bvsgt ARGNAME_input_NAMEEND_DIM temp4545_60)
        #x0000000000000001
        #x0000000000000000)))
(assert (= temp4545_61 #x0000000000000001))
(assert (= var71011 temp4545_61))
(assert (= temp4545_63 #x0000000000000000))
(assert (= temp4545_62 temp4545_63))
(assert (= temp4545_65 #x0000000000000000))
(assert (= temp4545_64 temp4545_65))
(assert (= temp4545_67 #x0000000000000000))
(assert (= temp4545_66 temp4545_67))
(assert (= temp4545_68 #x0000000000000005))
(assert (or false (= ARGNAME_input_NAMEEND_DIM temp4545_68)))
(model-add temp4545_1 () (_ BitVec 64) #x0000000000000009)
(model-add temp4545_2 () (_ BitVec 64) #x0000000000000001)
(model-add var70588 () (_ BitVec 64) #x0000000000000001)
(model-del k!0)
(model-add ARGNAME_input_NAMEEND_DIM
           ()
           (_ BitVec 64)
           (ite (or k!0 (= #x0000000000000009 #x8000000000000000))
                #x0000000000000009
                (bvsub #x0000000000000009 #x0000000000000001)))


